experiments/eusolverbv/4/DirectTrainGenes/0110111100010110100011110101000111000100101/104_.sl

(set-logic BV)

(define-fun shr1 ((x (BitVec 64))) (BitVec 64) (bvlshr x #x0000000000000001))
(define-fun shr4 ((x (BitVec 64))) (BitVec 64) (bvlshr x #x0000000000000004))
(define-fun shr16 ((x (BitVec 64))) (BitVec 64) (bvlshr x #x0000000000000010))
(define-fun shl1 ((x (BitVec 64))) (BitVec 64) (bvshl x #x0000000000000001))
(define-fun if0 ((x (BitVec 64)) (y (BitVec 64)) (z (BitVec 64))) (BitVec 64) (ite (= x #x0000000000000001) y z))
(define-fun func22  ((A (BitVec 64)) ) (BitVec 64) (bvand A  #x0000000000000001 ))
(define-fun func23  ((A (BitVec 64)) (B (BitVec 64)) (C (BitVec 64)) ) (BitVec 64) (bvand (bvlshr B  C ) A ))
(define-fun func24  ((A (BitVec 64)) (B (BitVec 64)) ) (BitVec 64) (bvand (bvlshr B  #x0000000000000001 ) A ))
(define-fun func25  ((A (BitVec 64)) (B (BitVec 64)) ) (BitVec 64) (bvand (bvlshr B  #x0000000000000010 ) A ))
(define-fun func26  ((A (BitVec 64)) (B (BitVec 64)) ) (BitVec 64) (bvand (bvlshr B  #x0000000000000004 ) A ))
(define-fun func27  ((A (BitVec 64)) (B (BitVec 64)) (C (BitVec 64)) (D (BitVec 64)) ) (BitVec 64) (bvand (bvlshr (bvlshr C  D ) B ) A ))
(define-fun func28  ((A (BitVec 64)) (B (BitVec 64)) ) (BitVec 64) (bvand (bvlshr A  B ) #x0000000000000001 ))
(define-fun func29  ((A (BitVec 64)) (B (BitVec 64)) ) (BitVec 64) (bvlshr A  B ))
(define-fun func30  ((A (BitVec 64)) (B (BitVec 64)) (C (BitVec 64)) ) (BitVec 64) (bvlshr (bvlshr B  C ) A ))
(define-fun func31  ((A (BitVec 64)) (B (BitVec 64)) ) (BitVec 64) (bvlshr (bvlshr B  #x0000000000000010 ) A ))
(define-fun func32  ((A (BitVec 64)) (B (BitVec 64)) ) (BitVec 64) (bvlshr (bvlshr B  #x0000000000000004 ) A ))
(define-fun func33  ((A (BitVec 64)) (B (BitVec 64)) (C (BitVec 64)) (D (BitVec 64)) ) (BitVec 64) (bvlshr (bvlshr (bvlshr C  D ) B ) A ))
(define-fun func34  ((A (BitVec 64)) (B (BitVec 64)) (C (BitVec 64)) ) (BitVec 64) (bvlshr (bvlshr (bvlshr C  #x0000000000000010 ) B ) A ))
(define-fun func35  ((A (BitVec 64)) (B (BitVec 64)) ) (BitVec 64) (bvlshr (bvlshr B  #x0000000000000001 ) A ))
(define-fun func36  ((A (BitVec 64)) (B (BitVec 64)) ) (BitVec 64) (bvlshr (bvlshr A  B ) #x0000000000000001 ))
(define-fun func37  ((A (BitVec 64)) (B (BitVec 64)) ) (BitVec 64) (bvlshr (bvlshr A  B ) #x0000000000000004 ))
(define-fun func38  ((A (BitVec 64)) (B (BitVec 64)) (C (BitVec 64)) ) (BitVec 64) (bvlshr (bvshl B  C ) A ))
(define-fun func39  ((A (BitVec 64)) (B (BitVec 64)) ) (BitVec 64) (bvlshr (bvshl B  #x0000000000000001 ) A ))
(define-fun func40  ((A (BitVec 64)) (B (BitVec 64)) ) (BitVec 64) (bvlshr (bvnot B ) A ))
(define-fun func41  ((A (BitVec 64)) ) (BitVec 64) (bvlshr (bvnot A ) #x0000000000000010 ))
(define-fun func42  ((A (BitVec 64)) (B (BitVec 64)) (C (BitVec 64)) ) (BitVec 64) (bvlshr (bvadd B  C ) A ))
(define-fun func44  ((A (BitVec 64)) (B (BitVec 64)) (C (BitVec 64)) ) (BitVec 64) (bvshl (bvlshr B  C ) A ))
(define-fun func45  ((A (BitVec 64)) (B (BitVec 64)) ) (BitVec 64) (bvshl (bvlshr B  #x0000000000000001 ) A ))
(define-fun func46  ((A (BitVec 64)) (B (BitVec 64)) ) (BitVec 64) (bvshl (bvlshr A  B ) #x0000000000000001 ))
(define-fun func47  ((A (BitVec 64)) (B (BitVec 64)) ) (BitVec 64) (bvshl (bvnot B ) A ))
(define-fun func48  ((A (BitVec 64)) ) (BitVec 64) (bvshl (bvnot A ) #x0000000000000001 ))
(define-fun func50  ((A (BitVec 64)) ) (BitVec 64) (bvnot (bvshl A  #x0000000000000001 )))
(define-fun func51  ((A (BitVec 64)) ) (BitVec 64) (bvadd A  #x0000000000000001 ))
(define-fun func52  ((A (BitVec 64)) (B (BitVec 64)) (C (BitVec 64)) ) (BitVec 64) (bvadd (bvlshr B  C ) A ))
(define-fun func53  ((A (BitVec 64)) (B (BitVec 64)) (C (BitVec 64)) ) (BitVec 64) (bvadd (bvshl B  C ) A ))
(define-fun func54  ((A (BitVec 64)) (B (BitVec 64)) ) (BitVec 64) (bvadd (bvshl B  #x0000000000000001 ) A ))
(define-fun func55  ((A (BitVec 64)) ) (BitVec 64) (bvor A  #x0000000000000001 ))
(define-fun func56  ((A (BitVec 64)) (B (BitVec 64)) (C (BitVec 64)) ) (BitVec 64) (bvor (bvlshr B  C ) A ))
(synth-fun f ( (x (BitVec 64))) (BitVec 64)
(
(Start (BitVec 64) (
   #x0000000000000000
   #x0000000000000001
   x
   (func23 Start Start Start)
   (func24 Start Start)
   (func26 Start Start)
   (func27 Start Start Start Start)
   (func28 Start Start)
   (func29 Start Start)
   (func33 Start Start Start Start)
   (func35 Start Start)
   (func36 Start Start)
   (func38 Start Start Start)
   (func42 Start Start Start)
   (func44 Start Start Start)
   (func45 Start Start)
   (func46 Start Start)
   (func48 Start)
   (func51 Start)
   (func55 Start)
   (func56 Start Start Start)
   (shl1 Start)
   (shr1 Start)
   (shr4 Start)
   (bvand Start Start)
   (bvor Start Start)
   (bvadd Start Start)
   (if0 Start Start Start)
))
))
(constraint (= (f #x1776da570af05ffc) #xf1776da570af05ff))
(constraint (= (f #x79f1101291f7bcab) #xf79f1101291f7bca))
(constraint (= (f #x24263846c3e3bbef) #xf24263846c3e3bbe))
(constraint (= (f #x49a52538dfaebc1f) #xf49a52538dfaebc1))
(constraint (= (f #xc823ec7b92384bcc) #xfc823ec7b92384bc))
(constraint (= (f #x06b1f51dab1a91e8) #xf06b1f51dab1a91e))
(constraint (= (f #x3dee48d2d997a128) #xf3dee48d2d997a12))
(constraint (= (f #xd9e57a2d41a32a8c) #xfd9e57a2d41a32a8))
(constraint (= (f #xce82ee6ec3ea7098) #xfce82ee6ec3ea709))
(constraint (= (f #x9e32244c663e0ea8) #xf9e32244c663e0ea))
(constraint (= (f #x000000000000e194) #xf000000000000e19))
(constraint (= (f #x80000000000091f4) #xf80000000000091f))
(constraint (= (f #x8000000000008eb4) #xf8000000000008eb))
(constraint (= (f #x000000000000a444) #xf000000000000a44))
(constraint (= (f #x0000000000009a94) #xf0000000000009a9))
(constraint (= (f #x00000000000345ff) #xf00000000000345f))
(constraint (= (f #x00000000000247db) #xf00000000000247d))
(constraint (= (f #x0000000000034b07) #xf0000000000034b0))
(constraint (= (f #x000000000002e863) #xf000000000002e86))
(constraint (= (f #x000000000002feb7) #xf000000000002feb))
(constraint (= (f #x0000000000013dc8) #xf000000000000000))
(constraint (= (f #x000000000001e554) #xf000000000000000))
(constraint (= (f #x000000000001d96c) #xf000000000000000))
(constraint (= (f #x000000000001fdec) #xf000000000000000))
(constraint (= (f #x00000000000101c0) #xf000000000000000))
(constraint (= (f #xadf85d1ad46170f5) #x5bf0ba35a8c2e1ea))
(constraint (= (f #xe5efacde687b12ee) #x4bdf59bcd0f625dc))
(constraint (= (f #x5392b522fe59d751) #x27256a45fcb3aea2))
(constraint (= (f #x8a6c6034abc0312d) #x14d8c0695780625a))
(constraint (= (f #x5a4550b61f5e5c3e) #x348aa16c3ebcb87c))
(constraint (= (f #x800000000000e0ff) #xf800000000000e0f))
(constraint (= (f #x800000000000f72f) #xf800000000000f72))
(constraint (= (f #x800000000000ffdb) #xf800000000000ffd))
(constraint (= (f #x000000000000985f) #xf000000000000985))
(constraint (= (f #x80000000000088b3) #xf80000000000088b))
(constraint (= (f #x0000000000035b58) #x000000000006b6b0))
(constraint (= (f #x000000000003d73c) #x000000000007ae78))
(constraint (= (f #x000000000003cd74) #x0000000000079ae8))
(constraint (= (f #x0000000000034c10) #x0000000000069820))
(constraint (= (f #x0000000000032e10) #x0000000000065c20))
(constraint (= (f #x000000000001672f) #xf000000000000000))
(constraint (= (f #x000000000001330f) #xf000000000000000))
(constraint (= (f #x0000000000018aef) #xf000000000000000))
(constraint (= (f #x000000000001413b) #xf000000000000000))
(constraint (= (f #x000000000001f35b) #xf000000000000000))
(constraint (= (f #xcdb4b7226e63e225) #x1b696e44dcc7c44a))
(constraint (= (f #x1fa54f9335975c1d) #x3f4a9f266b2eb83a))
(constraint (= (f #xc49a07f41b7d8daa) #x09340fe836fb1b54))
(constraint (= (f #x33dcbb49470d7c4e) #x67b976928e1af89c))
(constraint (= (f #xdd2f444fa29ed2a5) #x3a5e889f453da54a))
(constraint (= (f #x000000000000efb9) #x000000000000efba))
(constraint (= (f #x000000000000e3ed) #x000000000000e3ee))
(constraint (= (f #x800000000000d425) #x000000000000d426))
(constraint (= (f #x000000000000ad8d) #x000000000000ad8e))
(constraint (= (f #x800000000000a305) #x000000000000a306))
(constraint (= (f #x0000000000021f72) #xf0000000000021f7))
(constraint (= (f #x0000000000024bd2) #xf0000000000024bd))
(constraint (= (f #x0000000000034f12) #xf0000000000034f1))
(constraint (= (f #x000000000002d946) #xf000000000002d94))
(constraint (= (f #x000000000002ed4e) #xf000000000002ed4))
(constraint (= (f #x0000000000015735) #x000000000002ae6a))
(constraint (= (f #x0000000000019041) #x0000000000032082))
(constraint (= (f #x000000000001b2d9) #x00000000000365b2))
(constraint (= (f #x00000000000118a5) #x000000000002314a))
(constraint (= (f #x00000000000171a5) #x000000000002e34a))
(constraint (= (f #x800000000000dc16) #x000000000000dc17))
(constraint (= (f #x800000000000dda2) #x000000000000dda3))
(constraint (= (f #x800000000000aa5a) #x000000000000aa5b))
(constraint (= (f #x000000000000a09e) #x000000000000a09f))
(constraint (= (f #x800000000000c3ba) #x000000000000c3bb))
(constraint (= (f #x000000000003e829) #x000000000007d052))
(constraint (= (f #x00000000000385b5) #x0000000000070b6a))
(constraint (= (f #x0000000000039865) #x00000000000730ca))
(constraint (= (f #x0000000000028c4d) #x000000000005189a))
(constraint (= (f #x0000000000026069) #x000000000004c0d2))
(constraint (= (f #x0000000000015c0e) #x000000000002b81c))
(constraint (= (f #x0000000000012786) #x0000000000024f0c))
(constraint (= (f #x000000000001cf9a) #x0000000000039f34))
(constraint (= (f #x0000000000011f0e) #x0000000000023e1c))
(constraint (= (f #x000000000001a196) #x000000000003432c))
(constraint (= (f #xa84ab02ff5c39957) #xfa84ab02ff5c3995))
(constraint (= (f #x4bd68f0f1e115fb0) #xf4bd68f0f1e115fb))
(constraint (= (f #xf1b7a6bcfd1b7dd2) #x636f4d79fa36fba4))
(constraint (= (f #xe210fdd1f58f3ee2) #x4421fba3eb1e7dc4))
(constraint (= (f #x1320f614880197d1) #x2641ec2910032fa2))
(constraint (= (f #x94db3f468e15823a) #x29b67e8d1c2b0474))
(constraint (= (f #x0a7853dd9a4e5eab) #xf0a7853dd9a4e5ea))
(constraint (= (f #x88344394b35da3f1) #x1068872966bb47e2))
(constraint (= (f #x76fa037ecb88aa0e) #x6df406fd9711541c))
(constraint (= (f #x991d6ef4ad464fd9) #x323adde95a8c9fb2))
(constraint (= (f #x800000000000e365) #x000000000000e366))
(constraint (= (f #x000000000000b8b9) #x000000000000b8ba))
(constraint (= (f #x0000000000014d97) #xf000000000000000))
(constraint (= (f #x000000000002df78) #x000000000005bef0))
(constraint (= (f #x00000000000225c6) #xf00000000000225c))
(constraint (= (f #x0000000000037b68) #x000000000006f6d0))
(constraint (= (f #x000000000003ce73) #xf000000000003ce7))
(constraint (= (f #x0000000000020d70) #x0000000000041ae0))
(constraint (= (f #x0000000000037d39) #x000000000006fa72))
(constraint (= (f #x000000000002eaf1) #x000000000005d5e2))
(constraint (= (f #x000000000003432e) #xf000000000003432))
(constraint (= (f #x0000000000021eca) #xf0000000000021ec))
(constraint (= (f #x0000000000009042) #x0000000000009043))
(constraint (= (f #x770a0583582cd44f) #xf770a0583582cd44))
(constraint (= (f #x000000000001eb20) #xf000000000000000))
(constraint (= (f #xa007130860610497) #xfa00713086061049))
(constraint (= (f #x07db3bd404738c85) #x0fb677a808e7190a))
(constraint (= (f #x0000000000019075) #x00000000000320ea))
(constraint (= (f #x000000000000bf70) #xf000000000000bf7))
(constraint (= (f #xc4573700bb808eec) #xfc4573700bb808ee))
(constraint (= (f #xdf4af996b33b2a43) #xfdf4af996b33b2a4))
(constraint (= (f #x80000000000095ef) #xf80000000000095e))
(constraint (= (f #x000000000000888c) #xf000000000000888))
(constraint (= (f #x00000000000175de) #x000000000002ebbc))
(constraint (= (f #x000000000001bc62) #x00000000000378c4))
(constraint (= (f #x5384d1c86be62c18) #xf5384d1c86be62c1))
(constraint (= (f #x4dc5da37ca61b3d5) #x1b8bb46f94c367aa))
(constraint (= (f #xf2043eb2cd10cded) #x64087d659a219bda))
(constraint (= (f #x00000000000033e3) #xf00000000000033e))
(constraint (= (f #x0000000000003542) #x0000000000006a84))
(constraint (= (f #xca98e15c6324641a) #x1531c2b8c648c834))
(constraint (= (f #x000000000001accc) #xf000000000000000))
(constraint (= (f #xbf4a4094a92156dd) #x7e9481295242adba))
(constraint (= (f #xf7b68329a879269d) #x6f6d065350f24d3a))
(constraint (= (f #x72b97363dc00a453) #xf72b97363dc00a45))
(constraint (= (f #xaaaaaaaaaaab39fa) #x55555555555673f4))
(constraint (= (f #x95214844128ba8e3) #xf95214844128ba8e))
(constraint (= (f #x3c3ea8895c43ccac) #xf3c3ea8895c43cca))
(constraint (= (f #x30d84a00142b82c1) #x61b0940028570582))
(constraint (= (f #x0e4f49614d0ac743) #xf0e4f49614d0ac74))
(constraint (= (f #x800000000000d53e) #x000000000000d53f))
(constraint (= (f #x7671898842738586) #x6ce3131084e70b0c))
(constraint (= (f #x000000000001fbd8) #xf000000000000000))
(check-synth)
