experiments/eusolverbv/4/DirectTrainGenes/0110111100010110100011110101000111000100101/104_.out
(define-fun f ((x (BitVec 64))) (BitVec 64)
     (if0 (func24 #x0000000000000001 (func51 x)) (if0 (func24 (func26 #x0000000000000001 x) x) (if0 (func26 (shr4 (shl1 x)) x) (func51 (shr1 (shl1 x))) (if0 (func24 #x0000000000000001 (shr4 (shr4 x))) (if0 (func26 #x0000000000000001 (func48 x)) (func51 (func48 (shr1 (shr4 (func48 (shr1 x)))))) (if0 (func24 #x0000000000000001 (shr4 x)) (if0 (func26 #x0000000000000001 (shr4 x)) (func51 (shr1 (shl1 x))) (shl1 x)) (shl1 x))) (if0 (func26 #x0000000000000001 (func48 (shr4 x))) (if0 (func24 #x0000000000000001 (shr1 x)) (if0 (func24 #x0000000000000001 (shr4 x)) (if0 (func26 #x0000000000000001 (shr4 x)) (func51 (shr1 (shl1 x))) (shr1 (shl1 (shl1 x)))) (func51 (shr1 (shl1 x)))) (shr1 (shl1 (shl1 x)))) (shr1 (shl1 (shl1 x)))))) (if0 (func24 #x0000000000000001 (func24 x x)) (if0 (func26 #x0000000000000001 (shr4 x)) (if0 (func24 #x0000000000000001 (shr1 (shr4 x))) (func48 (shr1 (shr4 (func48 (shr1 x))))) (if0 (func24 #x0000000000000001 (shr4 x)) (func48 (shr1 (shr4 (func48 (shr1 x))))) (shr1 (shl1 (shl1 x))))) (shr1 (shl1 (shl1 x)))) (if0 (func26 (func51 (func51 #x0000000000000001)) x) (shr1 (shl1 (shl1 x))) (if0 (func26 x (shr4 (shr4 x))) (shl1 x) (if0 (func24 (func51 x) x) (func51 x) (if0 (func24 #x0000000000000001 x) (if0 (func24 #x0000000000000001 (shr4 x)) (if0 (func26 #x0000000000000001 (func48 x)) (if0 (func26 #x0000000000000001 (shr4 x)) (func51 (shr1 (shl1 x))) (shr1 (shl1 (shl1 x)))) (shr1 (shl1 (shl1 x)))) (if0 (func26 #x0000000000000001 (func48 x)) (shl1 x) (func48 (shr1 (shr4 (func48 (shr1 x))))))) (if0 (func26 x (shr4 x)) (func51 (shr1 (shl1 x))) (if0 (func26 #x0000000000000001 (func48 x)) (if0 (func26 #x0000000000000001 (func48 (shr4 x))) (if0 (func26 #x0000000000000001 x) (shl1 x) (if0 (func26 #x0000000000000001 (shr4 x)) (func51 (shr1 (shl1 x))) (if0 (func24 #x0000000000000001 (shr1 (shr4 x))) (shl1 x) (if0 (func24 #x0000000000000001 (shr4 (shr4 x))) (shr1 (shl1 (shl1 x))) (func51 (shr1 (shl1 x))))))) (shr1 (shl1 (shl1 x)))) (if0 (func26 #x0000000000000001 (func48 (shr4 x))) (shl1 x) (if0 (func24 #x0000000000000001 (func51 (shr4 x))) (if0 (func24 #x0000000000000001 (shr4 (shr4 x))) (func51 x) (shr1 (shl1 (shl1 x)))) (func51 x))))))))))) (if0 (func26 #x0000000000000001 x) (if0 (func26 #x0000000000000001 (func48 (shr4 x))) (if0 (func24 #x0000000000000001 x) (if0 (func24 #x0000000000000001 (shr1 x)) (func51 (func48 (shr1 (shr4 (func48 (shr1 x)))))) (if0 (func26 #x0000000000000001 (func48 x)) (func51 (func48 (shr1 (shr4 (func48 (shr1 x)))))) (func48 (shr1 (shr4 (func48 #x0000000000000000)))))) (if0 (func24 #x0000000000000001 (shr1 x)) (if0 (func24 #x0000000000000001 (shr4 x)) (shl1 x) (func48 (shr1 (shr4 (func48 #x0000000000000000))))) (if0 (func26 (func51 x) (shr4 x)) (shl1 x) (if0 (func24 #x0000000000000001 (shr4 x)) (if0 (func26 #x0000000000000001 (func48 x)) (func51 (func48 (shr1 (shr4 (func48 (shr1 x)))))) (shl1 x)) (if0 (func26 #x0000000000000001 (func48 x)) (shl1 x) (if0 (func26 #x0000000000000001 (shr4 x)) (shl1 x) (func51 (func48 (shr1 (shr4 (func48 (shr1 x)))))))))))) (if0 (func24 x (func24 x x)) (func48 (shr1 (shr4 (func48 #x0000000000000000)))) (if0 (func24 #x0000000000000001 (shr1 x)) (func51 (func48 (shr1 (shr4 (func48 (shr1 x)))))) (if0 (func24 #x0000000000000001 (shr1 (shr4 x))) (if0 (func24 #x0000000000000001 x) (func51 (func48 (shr1 (shr4 (func48 (shr1 x)))))) (func48 (shr1 (shr4 (func48 #x0000000000000000))))) (func51 (func48 (shr1 (shr4 (func48 (shr1 x)))))))))) (if0 (func24 (func51 (func51 #x0000000000000001)) x) (func48 (shr1 (shr4 (func48 (shr1 x))))) (if0 (func24 #x0000000000000001 (shr1 x)) (if0 (func24 (shr4 (shl1 x)) x) (func48 (shr1 (shr4 (func48 #x0000000000000000)))) (if0 (func24 #x0000000000000001 (shr4 x)) (if0 (func24 #x0000000000000001 x) (if0 (func26 #x0000000000000001 (shr4 (shr4 x))) (func48 (shr1 (shr4 (func48 (shr1 x))))) (func48 (shr1 (shr4 (func48 #x0000000000000000))))) (if0 (func26 #x0000000000000001 (shr4 x)) (func48 (shr1 (shr4 (func48 #x0000000000000000)))) (func48 (shr1 (shr4 (func48 (shr1 x))))))) (if0 (func24 #x0000000000000001 (shr1 (shr4 x))) (if0 (func26 #x0000000000000001 (func48 (func51 x))) (func48 (shr1 (shr4 (func48 (shr1 x))))) (if0 (func26 #x0000000000000001 (shr4 x)) (func48 (shr1 (shr4 (func48 (shr1 x))))) (func48 (shr1 (shr4 (func48 #x0000000000000000)))))) (func48 (shr1 (shr4 (func48 (shr1 x)))))))) (if0 (func24 #x0000000000000001 (shr4 x)) (if0 (func26 #x0000000000000001 (func48 x)) (func48 (shr1 (shr4 (func48 #x0000000000000000)))) (if0 (func24 #x0000000000000001 (shr1 (shr4 x))) (if0 (func24 #x0000000000000001 (shr4 (shr4 x))) (shl1 x) (func48 (shr1 (shr4 (func48 (shr1 x)))))) (func48 (shr1 (shr4 (func48 (shr1 x))))))) (func48 (shr1 (shr4 (func48 #x0000000000000000))))))))))
136.1468050032854
